(declare-fun T_1 () Bool)
(declare-fun T_2 () Bool)
(declare-fun T_3 () Bool)
(declare-fun T_4 () Bool)
(declare-fun T_5 () Bool)
(declare-fun T_6 () Bool)
(declare-fun T_7 () Bool)
(declare-fun T_8 () Bool)
(declare-fun var_0xINPUT_181437 () String)
(assert (= T_1 (not (= "K9BOAGJDFi" var_0xINPUT_181437))))
(assert (= T_2 (not T_1)))
(assert T_2)
(assert (= T_3 (not (= "" var_0xINPUT_181437))))
(assert T_3)
(assert (= T_4 (not (= var_0xINPUT_181437 "A9jaaDKZbG"))))
(assert T_4)
(assert (= T_5 (not (= "A9jaaDKZbG" var_0xINPUT_181437))))
(assert T_5)
(assert (= T_6 (= var_0xINPUT_181437 "")))
(assert (= T_7 (not T_6)))
(assert T_7)
(assert (= T_8 (not (= var_0xINPUT_181437 "AUEAICDdfN"))))
(assert T_8)
(check-sat)
